# 1.2.1.16_group0_PF00171_30-85~1.2.1.27_group0_PF00171_30-85.sdpA
# All alignment positions within 5\AA of a ligand/cat site passing the sdpA filter.  Column indices start with 0.
143
152
221
247
408
